SiC HCP structure
1.0
3.092008 0.000000 0.000000
-1.546004 2.677757 0.000000
0.000000 0.000000 5.073347
Si C
2 2
direct
0.666667 0.333333 0.999589 Si
0.333333 0.666667 0.499589 Si
0.666667 0.333333 0.375411 C
0.333333 0.666667 0.875411 C
